# Solution for model GasLib-40
# Objective value = 6.7613749807985442e+01
loadshed[innode_1] 0
loadshed[innode_2] 0
loadshed[innode_3] 0
loadshed[innode_4] 0
loadshed[innode_5] 0
loadshed[innode_6] 0
loadshed[innode_7] 0
loadshed[innode_8] 0
loadshed[source_1] -5.5812306438619119e-02
loadshed[source_2] 1.0017679298978688e-01
loadshed[source_3] 3.8332626558363725e-01
loadshed[sink_1] 1
loadshed[sink_2] 0
loadshed[sink_3] 0
loadshed[sink_4] 0
loadshed[sink_5] 0
loadshed[sink_6] 0
loadshed[sink_7] 0
loadshed[sink_8] 0
loadshed[sink_9] 0
loadshed[sink_10] 0
loadshed[sink_11] 0
loadshed[sink_12] 1
loadshed[sink_13] 0
loadshed[sink_14] 0
loadshed[sink_15] 0
loadshed[sink_16] 0
loadshed[sink_17] 0
loadshed[sink_18] 1.7875637772206021e-02
loadshed[sink_19] 0
loadshed[sink_20] 0
loadshed[sink_21] 1
loadshed[sink_22] 1.7305492705214970e-01
loadshed[sink_23] 0
loadshed[sink_24] 0.943413372479212
loadshed[sink_25] 0
loadshed[sink_26] 0
loadshed[sink_27] 0
loadshed[sink_28] 0
loadshed[sink_29] 0
flow[source_1,sink_3] 1.6691366080607753e+02
flow[innode_1,sink_16] 1.6354166666666970e+01
flow[innode_6,sink_13] 1.6989044694524036e+01
flow[sink_13,sink_14] 6.3487802785736847e-01
flow[sink_14,sink_10] -1.5719288638809530e+01
flow[sink_25,sink_26] 3.2708333333335915e+01
flow[sink_26,sink_9] 1.6354166666669244e+01
flow[sink_9,sink_18] 0
flow[sink_26,sink_4] 0
flow[sink_4,sink_20] -63.1316975427919
flow[sink_18,sink_6] -1.6061825507267049e+01
flow[sink_25,innode_8] -1.3420532747274117e+02
flow[sink_6,sink_7] -4.5939989721101711e+01
flow[sink_6,sink_22] 1.3523997547167969e+01
flow[sink_7,sink_24] 9.2542713757955575e-01
flow[sink_22,sink_1] 0
flow[sink_24,sink_21] 0
flow[sink_21,sink_12] 0
flow[sink_7,sink_5] -6.3219583525347915e+01
flow[sink_5,sink_17] -7.9573750192014586e+01
flow[sink_17,sink_4] -4.6777530876125226e+01
flow[sink_17,sink_8] -4.9150385982556017e+01
flow[sink_3,sink_23] 16.3541666666697
flow[sink_8,sink_20] -6.5504552649222688e+01
flow[sink_25,sink_20] 1.4499041685868127e+02
flow[sink_25,sink_15] -7.6836634080467533e+01
flow[sink_15,sink_29] -5.3187008132033512e+01
flow[sink_29,sink_28] 1.6354166666667879e+01
flow[sink_29,sink_2] 5.6357959281767364e+01
flow[sink_2,sink_15] 40.0037926151007
flow[sink_29,innode_7] -1.4225330074713543e+02
flow[innode_4,sink_19] 3.6890311358733967e+01
flow[sink_19,innode_3] 6.4781788638809644e+01
flow[innode_4,innode_5] 6.0599810613408380e+01
flow[sink_27,innode_5] -6.0599810613408380e+01
flow[sink_27,sink_19] 4.4245643946741716e+01
flow[sink_10,sink_11] 3.2708333333333641e+01
flow[sink_10,innode_2] 0
flow[sink_10,innode_3] -6.4781788638809644e+01
flow[innode_6,sink_25] -1.6989044694524036e+01
flow[sink_11,innode_1] 1.6354166666666970e+01
flow[sink_19,innode_2] 0
flow[source_3,innode_4] 9.7490121972142347e+01
flow[source_2,innode_7] 1.4225330074713543e+02
flow[sink_3,innode_8] 1.3420532747274117e+02
pressure[innode_1] 7.5774589696736541e+01
pressure[innode_2] 7.5926291004340086e+01
pressure[innode_3] 7.9375277554609710e+01
pressure[innode_4] 81.01325
pressure[innode_5] 8.0971566254822193e+01
pressure[innode_6] 7.5277584656478950e+01
pressure[innode_7] 81.01325
pressure[innode_8] 8.0455321395254870e+01
pressure[source_1] 81.01325
pressure[source_2] 81.01325
pressure[source_3] 81.01325
pressure[sink_1] 1.0132500000000002e+00
pressure[sink_2] 7.5780920769257577e+01
pressure[sink_3] 8.0455321395254870e+01
pressure[sink_4] 3.6080677727874580e+01
pressure[sink_5] 2.8365325528210860e+01
pressure[sink_6] 1.4421485633832190e+00
pressure[sink_7] 2.0727951178920789e+00
pressure[sink_8] 3.6147566494613933e+01
pressure[sink_9] 7.1995116864408629e+01
pressure[sink_10] 7.5926291004340086e+01
pressure[sink_11] 7.5774589696736541e+01
pressure[sink_12] 1.01325
pressure[sink_13] 7.5183926892211147e+01
pressure[sink_14] 7.5182790723900652e+01
pressure[sink_15] 7.5650317203063153e+01
pressure[sink_16] 7.4752939861918861e+01
pressure[sink_17] 3.4292994741929242e+01
pressure[sink_18] 1.01325
pressure[sink_19] 79.5187294898086
pressure[sink_20] 4.0712312605986391e+01
pressure[sink_21] 1.01325
pressure[sink_22] 1.0132500000000002e+00
pressure[sink_23] 8.0290603383595084e+01
pressure[sink_24] 1.01325
pressure[sink_25] 7.5277584656478950e+01
pressure[sink_26] 7.2973955948351048e+01
pressure[sink_27] 8.0468699803140751e+01
pressure[sink_28] 7.6913249208062368e+01
pressure[sink_29] 7.7208531481679557e+01
interdiction[source_1,sink_3] 0
interdiction[innode_1,sink_16] 0
interdiction[innode_6,sink_13] 0
interdiction[sink_13,sink_14] 0
interdiction[sink_14,sink_10] 0
interdiction[sink_25,sink_26] 0
interdiction[sink_26,sink_9] 0
interdiction[sink_9,sink_18] 1
interdiction[sink_26,sink_4] 1
interdiction[sink_4,sink_20] 0
interdiction[sink_18,sink_6] 0
interdiction[sink_25,innode_8] 0
interdiction[sink_6,sink_7] 0
interdiction[sink_6,sink_22] 0
interdiction[sink_7,sink_24] 0
interdiction[sink_22,sink_1] 0
interdiction[sink_24,sink_21] 0
interdiction[sink_21,sink_12] 0
interdiction[sink_7,sink_5] 0
interdiction[sink_5,sink_17] 0
interdiction[sink_17,sink_4] 0
interdiction[sink_17,sink_8] 0
interdiction[sink_3,sink_23] 0
interdiction[sink_8,sink_20] 0
interdiction[sink_25,sink_20] 0
interdiction[sink_25,sink_15] 0
interdiction[sink_15,sink_29] 0
interdiction[sink_29,sink_28] 0
interdiction[sink_29,sink_2] 0
interdiction[sink_2,sink_15] 0
interdiction[sink_29,innode_7] 0
interdiction[innode_4,sink_19] 0
interdiction[sink_19,innode_3] 0
interdiction[innode_4,innode_5] 0
interdiction[sink_27,innode_5] 0
interdiction[sink_27,sink_19] 0
interdiction[sink_10,sink_11] 0
interdiction[sink_10,innode_2] 0
interdiction[sink_10,innode_3] 0
interdiction[innode_6,sink_25] 0
interdiction[sink_11,innode_1] 0
interdiction[sink_19,innode_2] 1
interdiction[source_3,innode_4] 0
interdiction[source_2,innode_7] 0
interdiction[sink_3,innode_8] 0
WCcheckFlow[source_1,sink_3] 39
WCcheckFlow[innode_1,sink_16] 1
WCcheckFlow[innode_6,sink_13] 13
WCcheckFlow[sink_13,sink_14] 12
WCcheckFlow[sink_14,sink_10] 11
WCcheckFlow[sink_25,sink_26] 2
WCcheckFlow[sink_26,sink_9] 1
WCcheckFlow[sink_9,sink_18] 0
WCcheckFlow[sink_26,sink_4] 0
WCcheckFlow[sink_4,sink_20] -12
WCcheckFlow[sink_18,sink_6] -1
WCcheckFlow[sink_25,innode_8] -36
WCcheckFlow[sink_6,sink_7] -4
WCcheckFlow[sink_6,sink_22] 2
WCcheckFlow[sink_7,sink_24] 3
WCcheckFlow[sink_22,sink_1] 1
WCcheckFlow[sink_24,sink_21] 2
WCcheckFlow[sink_21,sink_12] 1
WCcheckFlow[sink_7,sink_5] -8
WCcheckFlow[sink_5,sink_17] -9
WCcheckFlow[sink_17,sink_4] -11
WCcheckFlow[sink_17,sink_8] 1
WCcheckFlow[sink_3,sink_23] 1
WCcheckFlow[sink_8,sink_20] 0
WCcheckFlow[sink_25,sink_20] 13
WCcheckFlow[sink_25,sink_15] 6
WCcheckFlow[sink_15,sink_29] 5
WCcheckFlow[sink_29,sink_28] 1
WCcheckFlow[sink_29,sink_2] 1
WCcheckFlow[sink_2,sink_15] 0
WCcheckFlow[sink_29,innode_7] 2
WCcheckFlow[innode_4,sink_19] -4
WCcheckFlow[sink_19,innode_3] -5
WCcheckFlow[innode_4,innode_5] 2
WCcheckFlow[sink_27,innode_5] -1
WCcheckFlow[sink_27,sink_19] 0
WCcheckFlow[sink_10,sink_11] 3
WCcheckFlow[sink_10,innode_2] 1
WCcheckFlow[sink_10,innode_3] 6
WCcheckFlow[innode_6,sink_25] -14
WCcheckFlow[sink_11,innode_1] 2
WCcheckFlow[sink_19,innode_2] 0
WCcheckFlow[source_3,innode_4] -1
WCcheckFlow[source_2,innode_7] -1
WCcheckFlow[sink_3,innode_8] 37
